c *********************************
c * Circuit generated by BenCGen
c *
c * Parity_371
c *
c * Ports with 1 gate(s): 1
c * Ports with 2 gate(s): 371
c * Total gates: 372
c *********************************
p cnf 743 1485
1 374 0
-1 -374 0
1 -373 0
374 -373 0
-1 -374 373 0
1 2 -375 0
-1 2 375 0
1 -2 375 0
-1 -2 -375 0
3 4 -376 0
-3 4 376 0
3 -4 376 0
-3 -4 -376 0
5 6 -377 0
-5 6 377 0
5 -6 377 0
-5 -6 -377 0
7 8 -378 0
-7 8 378 0
7 -8 378 0
-7 -8 -378 0
9 10 -379 0
-9 10 379 0
9 -10 379 0
-9 -10 -379 0
11 12 -380 0
-11 12 380 0
11 -12 380 0
-11 -12 -380 0
13 14 -381 0
-13 14 381 0
13 -14 381 0
-13 -14 -381 0
15 16 -382 0
-15 16 382 0
15 -16 382 0
-15 -16 -382 0
17 18 -383 0
-17 18 383 0
17 -18 383 0
-17 -18 -383 0
19 20 -384 0
-19 20 384 0
19 -20 384 0
-19 -20 -384 0
21 22 -385 0
-21 22 385 0
21 -22 385 0
-21 -22 -385 0
23 24 -386 0
-23 24 386 0
23 -24 386 0
-23 -24 -386 0
25 26 -387 0
-25 26 387 0
25 -26 387 0
-25 -26 -387 0
27 28 -388 0
-27 28 388 0
27 -28 388 0
-27 -28 -388 0
29 30 -389 0
-29 30 389 0
29 -30 389 0
-29 -30 -389 0
31 32 -390 0
-31 32 390 0
31 -32 390 0
-31 -32 -390 0
33 34 -391 0
-33 34 391 0
33 -34 391 0
-33 -34 -391 0
35 36 -392 0
-35 36 392 0
35 -36 392 0
-35 -36 -392 0
37 38 -393 0
-37 38 393 0
37 -38 393 0
-37 -38 -393 0
39 40 -394 0
-39 40 394 0
39 -40 394 0
-39 -40 -394 0
41 42 -395 0
-41 42 395 0
41 -42 395 0
-41 -42 -395 0
43 44 -396 0
-43 44 396 0
43 -44 396 0
-43 -44 -396 0
45 46 -397 0
-45 46 397 0
45 -46 397 0
-45 -46 -397 0
47 48 -398 0
-47 48 398 0
47 -48 398 0
-47 -48 -398 0
49 50 -399 0
-49 50 399 0
49 -50 399 0
-49 -50 -399 0
51 52 -400 0
-51 52 400 0
51 -52 400 0
-51 -52 -400 0
53 54 -401 0
-53 54 401 0
53 -54 401 0
-53 -54 -401 0
55 56 -402 0
-55 56 402 0
55 -56 402 0
-55 -56 -402 0
57 58 -403 0
-57 58 403 0
57 -58 403 0
-57 -58 -403 0
59 60 -404 0
-59 60 404 0
59 -60 404 0
-59 -60 -404 0
61 62 -405 0
-61 62 405 0
61 -62 405 0
-61 -62 -405 0
63 64 -406 0
-63 64 406 0
63 -64 406 0
-63 -64 -406 0
65 66 -407 0
-65 66 407 0
65 -66 407 0
-65 -66 -407 0
67 68 -408 0
-67 68 408 0
67 -68 408 0
-67 -68 -408 0
69 70 -409 0
-69 70 409 0
69 -70 409 0
-69 -70 -409 0
71 72 -410 0
-71 72 410 0
71 -72 410 0
-71 -72 -410 0
73 74 -411 0
-73 74 411 0
73 -74 411 0
-73 -74 -411 0
75 76 -412 0
-75 76 412 0
75 -76 412 0
-75 -76 -412 0
77 78 -413 0
-77 78 413 0
77 -78 413 0
-77 -78 -413 0
79 80 -414 0
-79 80 414 0
79 -80 414 0
-79 -80 -414 0
81 82 -415 0
-81 82 415 0
81 -82 415 0
-81 -82 -415 0
83 84 -416 0
-83 84 416 0
83 -84 416 0
-83 -84 -416 0
85 86 -417 0
-85 86 417 0
85 -86 417 0
-85 -86 -417 0
87 88 -418 0
-87 88 418 0
87 -88 418 0
-87 -88 -418 0
89 90 -419 0
-89 90 419 0
89 -90 419 0
-89 -90 -419 0
91 92 -420 0
-91 92 420 0
91 -92 420 0
-91 -92 -420 0
93 94 -421 0
-93 94 421 0
93 -94 421 0
-93 -94 -421 0
95 96 -422 0
-95 96 422 0
95 -96 422 0
-95 -96 -422 0
97 98 -423 0
-97 98 423 0
97 -98 423 0
-97 -98 -423 0
99 100 -424 0
-99 100 424 0
99 -100 424 0
-99 -100 -424 0
101 102 -425 0
-101 102 425 0
101 -102 425 0
-101 -102 -425 0
103 104 -426 0
-103 104 426 0
103 -104 426 0
-103 -104 -426 0
105 106 -427 0
-105 106 427 0
105 -106 427 0
-105 -106 -427 0
107 108 -428 0
-107 108 428 0
107 -108 428 0
-107 -108 -428 0
109 110 -429 0
-109 110 429 0
109 -110 429 0
-109 -110 -429 0
111 112 -430 0
-111 112 430 0
111 -112 430 0
-111 -112 -430 0
113 114 -431 0
-113 114 431 0
113 -114 431 0
-113 -114 -431 0
115 116 -432 0
-115 116 432 0
115 -116 432 0
-115 -116 -432 0
117 118 -433 0
-117 118 433 0
117 -118 433 0
-117 -118 -433 0
119 120 -434 0
-119 120 434 0
119 -120 434 0
-119 -120 -434 0
121 122 -435 0
-121 122 435 0
121 -122 435 0
-121 -122 -435 0
123 124 -436 0
-123 124 436 0
123 -124 436 0
-123 -124 -436 0
125 126 -437 0
-125 126 437 0
125 -126 437 0
-125 -126 -437 0
127 128 -438 0
-127 128 438 0
127 -128 438 0
-127 -128 -438 0
129 130 -439 0
-129 130 439 0
129 -130 439 0
-129 -130 -439 0
131 132 -440 0
-131 132 440 0
131 -132 440 0
-131 -132 -440 0
133 134 -441 0
-133 134 441 0
133 -134 441 0
-133 -134 -441 0
135 136 -442 0
-135 136 442 0
135 -136 442 0
-135 -136 -442 0
137 138 -443 0
-137 138 443 0
137 -138 443 0
-137 -138 -443 0
139 140 -444 0
-139 140 444 0
139 -140 444 0
-139 -140 -444 0
141 142 -445 0
-141 142 445 0
141 -142 445 0
-141 -142 -445 0
143 144 -446 0
-143 144 446 0
143 -144 446 0
-143 -144 -446 0
145 146 -447 0
-145 146 447 0
145 -146 447 0
-145 -146 -447 0
147 148 -448 0
-147 148 448 0
147 -148 448 0
-147 -148 -448 0
149 150 -449 0
-149 150 449 0
149 -150 449 0
-149 -150 -449 0
151 152 -450 0
-151 152 450 0
151 -152 450 0
-151 -152 -450 0
153 154 -451 0
-153 154 451 0
153 -154 451 0
-153 -154 -451 0
155 156 -452 0
-155 156 452 0
155 -156 452 0
-155 -156 -452 0
157 158 -453 0
-157 158 453 0
157 -158 453 0
-157 -158 -453 0
159 160 -454 0
-159 160 454 0
159 -160 454 0
-159 -160 -454 0
161 162 -455 0
-161 162 455 0
161 -162 455 0
-161 -162 -455 0
163 164 -456 0
-163 164 456 0
163 -164 456 0
-163 -164 -456 0
165 166 -457 0
-165 166 457 0
165 -166 457 0
-165 -166 -457 0
167 168 -458 0
-167 168 458 0
167 -168 458 0
-167 -168 -458 0
169 170 -459 0
-169 170 459 0
169 -170 459 0
-169 -170 -459 0
171 172 -460 0
-171 172 460 0
171 -172 460 0
-171 -172 -460 0
173 174 -461 0
-173 174 461 0
173 -174 461 0
-173 -174 -461 0
175 176 -462 0
-175 176 462 0
175 -176 462 0
-175 -176 -462 0
177 178 -463 0
-177 178 463 0
177 -178 463 0
-177 -178 -463 0
179 180 -464 0
-179 180 464 0
179 -180 464 0
-179 -180 -464 0
181 182 -465 0
-181 182 465 0
181 -182 465 0
-181 -182 -465 0
183 184 -466 0
-183 184 466 0
183 -184 466 0
-183 -184 -466 0
185 186 -467 0
-185 186 467 0
185 -186 467 0
-185 -186 -467 0
187 188 -468 0
-187 188 468 0
187 -188 468 0
-187 -188 -468 0
189 190 -469 0
-189 190 469 0
189 -190 469 0
-189 -190 -469 0
191 192 -470 0
-191 192 470 0
191 -192 470 0
-191 -192 -470 0
193 194 -471 0
-193 194 471 0
193 -194 471 0
-193 -194 -471 0
195 196 -472 0
-195 196 472 0
195 -196 472 0
-195 -196 -472 0
197 198 -473 0
-197 198 473 0
197 -198 473 0
-197 -198 -473 0
199 200 -474 0
-199 200 474 0
199 -200 474 0
-199 -200 -474 0
201 202 -475 0
-201 202 475 0
201 -202 475 0
-201 -202 -475 0
203 204 -476 0
-203 204 476 0
203 -204 476 0
-203 -204 -476 0
205 206 -477 0
-205 206 477 0
205 -206 477 0
-205 -206 -477 0
207 208 -478 0
-207 208 478 0
207 -208 478 0
-207 -208 -478 0
209 210 -479 0
-209 210 479 0
209 -210 479 0
-209 -210 -479 0
211 212 -480 0
-211 212 480 0
211 -212 480 0
-211 -212 -480 0
213 214 -481 0
-213 214 481 0
213 -214 481 0
-213 -214 -481 0
215 216 -482 0
-215 216 482 0
215 -216 482 0
-215 -216 -482 0
217 218 -483 0
-217 218 483 0
217 -218 483 0
-217 -218 -483 0
219 220 -484 0
-219 220 484 0
219 -220 484 0
-219 -220 -484 0
221 222 -485 0
-221 222 485 0
221 -222 485 0
-221 -222 -485 0
223 224 -486 0
-223 224 486 0
223 -224 486 0
-223 -224 -486 0
225 226 -487 0
-225 226 487 0
225 -226 487 0
-225 -226 -487 0
227 228 -488 0
-227 228 488 0
227 -228 488 0
-227 -228 -488 0
229 230 -489 0
-229 230 489 0
229 -230 489 0
-229 -230 -489 0
231 232 -490 0
-231 232 490 0
231 -232 490 0
-231 -232 -490 0
233 234 -491 0
-233 234 491 0
233 -234 491 0
-233 -234 -491 0
235 236 -492 0
-235 236 492 0
235 -236 492 0
-235 -236 -492 0
237 238 -493 0
-237 238 493 0
237 -238 493 0
-237 -238 -493 0
239 240 -494 0
-239 240 494 0
239 -240 494 0
-239 -240 -494 0
241 242 -495 0
-241 242 495 0
241 -242 495 0
-241 -242 -495 0
243 244 -496 0
-243 244 496 0
243 -244 496 0
-243 -244 -496 0
245 246 -497 0
-245 246 497 0
245 -246 497 0
-245 -246 -497 0
247 248 -498 0
-247 248 498 0
247 -248 498 0
-247 -248 -498 0
249 250 -499 0
-249 250 499 0
249 -250 499 0
-249 -250 -499 0
251 252 -500 0
-251 252 500 0
251 -252 500 0
-251 -252 -500 0
253 254 -501 0
-253 254 501 0
253 -254 501 0
-253 -254 -501 0
255 256 -502 0
-255 256 502 0
255 -256 502 0
-255 -256 -502 0
257 258 -503 0
-257 258 503 0
257 -258 503 0
-257 -258 -503 0
259 260 -504 0
-259 260 504 0
259 -260 504 0
-259 -260 -504 0
261 262 -505 0
-261 262 505 0
261 -262 505 0
-261 -262 -505 0
263 264 -506 0
-263 264 506 0
263 -264 506 0
-263 -264 -506 0
265 266 -507 0
-265 266 507 0
265 -266 507 0
-265 -266 -507 0
267 268 -508 0
-267 268 508 0
267 -268 508 0
-267 -268 -508 0
269 270 -509 0
-269 270 509 0
269 -270 509 0
-269 -270 -509 0
271 272 -510 0
-271 272 510 0
271 -272 510 0
-271 -272 -510 0
273 274 -511 0
-273 274 511 0
273 -274 511 0
-273 -274 -511 0
275 276 -512 0
-275 276 512 0
275 -276 512 0
-275 -276 -512 0
277 278 -513 0
-277 278 513 0
277 -278 513 0
-277 -278 -513 0
279 280 -514 0
-279 280 514 0
279 -280 514 0
-279 -280 -514 0
281 282 -515 0
-281 282 515 0
281 -282 515 0
-281 -282 -515 0
283 284 -516 0
-283 284 516 0
283 -284 516 0
-283 -284 -516 0
285 286 -517 0
-285 286 517 0
285 -286 517 0
-285 -286 -517 0
287 288 -518 0
-287 288 518 0
287 -288 518 0
-287 -288 -518 0
289 290 -519 0
-289 290 519 0
289 -290 519 0
-289 -290 -519 0
291 292 -520 0
-291 292 520 0
291 -292 520 0
-291 -292 -520 0
293 294 -521 0
-293 294 521 0
293 -294 521 0
-293 -294 -521 0
295 296 -522 0
-295 296 522 0
295 -296 522 0
-295 -296 -522 0
297 298 -523 0
-297 298 523 0
297 -298 523 0
-297 -298 -523 0
299 300 -524 0
-299 300 524 0
299 -300 524 0
-299 -300 -524 0
301 302 -525 0
-301 302 525 0
301 -302 525 0
-301 -302 -525 0
303 304 -526 0
-303 304 526 0
303 -304 526 0
-303 -304 -526 0
305 306 -527 0
-305 306 527 0
305 -306 527 0
-305 -306 -527 0
307 308 -528 0
-307 308 528 0
307 -308 528 0
-307 -308 -528 0
309 310 -529 0
-309 310 529 0
309 -310 529 0
-309 -310 -529 0
311 312 -530 0
-311 312 530 0
311 -312 530 0
-311 -312 -530 0
313 314 -531 0
-313 314 531 0
313 -314 531 0
-313 -314 -531 0
315 316 -532 0
-315 316 532 0
315 -316 532 0
-315 -316 -532 0
317 318 -533 0
-317 318 533 0
317 -318 533 0
-317 -318 -533 0
319 320 -534 0
-319 320 534 0
319 -320 534 0
-319 -320 -534 0
321 322 -535 0
-321 322 535 0
321 -322 535 0
-321 -322 -535 0
323 324 -536 0
-323 324 536 0
323 -324 536 0
-323 -324 -536 0
325 326 -537 0
-325 326 537 0
325 -326 537 0
-325 -326 -537 0
327 328 -538 0
-327 328 538 0
327 -328 538 0
-327 -328 -538 0
329 330 -539 0
-329 330 539 0
329 -330 539 0
-329 -330 -539 0
331 332 -540 0
-331 332 540 0
331 -332 540 0
-331 -332 -540 0
333 334 -541 0
-333 334 541 0
333 -334 541 0
-333 -334 -541 0
335 336 -542 0
-335 336 542 0
335 -336 542 0
-335 -336 -542 0
337 338 -543 0
-337 338 543 0
337 -338 543 0
-337 -338 -543 0
339 340 -544 0
-339 340 544 0
339 -340 544 0
-339 -340 -544 0
341 342 -545 0
-341 342 545 0
341 -342 545 0
-341 -342 -545 0
343 344 -546 0
-343 344 546 0
343 -344 546 0
-343 -344 -546 0
345 346 -547 0
-345 346 547 0
345 -346 547 0
-345 -346 -547 0
347 348 -548 0
-347 348 548 0
347 -348 548 0
-347 -348 -548 0
349 350 -549 0
-349 350 549 0
349 -350 549 0
-349 -350 -549 0
351 352 -550 0
-351 352 550 0
351 -352 550 0
-351 -352 -550 0
353 354 -551 0
-353 354 551 0
353 -354 551 0
-353 -354 -551 0
355 356 -552 0
-355 356 552 0
355 -356 552 0
-355 -356 -552 0
357 358 -553 0
-357 358 553 0
357 -358 553 0
-357 -358 -553 0
359 360 -554 0
-359 360 554 0
359 -360 554 0
-359 -360 -554 0
361 362 -555 0
-361 362 555 0
361 -362 555 0
-361 -362 -555 0
363 364 -556 0
-363 364 556 0
363 -364 556 0
-363 -364 -556 0
365 366 -557 0
-365 366 557 0
365 -366 557 0
-365 -366 -557 0
367 368 -558 0
-367 368 558 0
367 -368 558 0
-367 -368 -558 0
369 370 -559 0
-369 370 559 0
369 -370 559 0
-369 -370 -559 0
375 376 -560 0
-375 376 560 0
375 -376 560 0
-375 -376 -560 0
377 378 -561 0
-377 378 561 0
377 -378 561 0
-377 -378 -561 0
379 380 -562 0
-379 380 562 0
379 -380 562 0
-379 -380 -562 0
381 382 -563 0
-381 382 563 0
381 -382 563 0
-381 -382 -563 0
383 384 -564 0
-383 384 564 0
383 -384 564 0
-383 -384 -564 0
385 386 -565 0
-385 386 565 0
385 -386 565 0
-385 -386 -565 0
387 388 -566 0
-387 388 566 0
387 -388 566 0
-387 -388 -566 0
389 390 -567 0
-389 390 567 0
389 -390 567 0
-389 -390 -567 0
391 392 -568 0
-391 392 568 0
391 -392 568 0
-391 -392 -568 0
393 394 -569 0
-393 394 569 0
393 -394 569 0
-393 -394 -569 0
395 396 -570 0
-395 396 570 0
395 -396 570 0
-395 -396 -570 0
397 398 -571 0
-397 398 571 0
397 -398 571 0
-397 -398 -571 0
399 400 -572 0
-399 400 572 0
399 -400 572 0
-399 -400 -572 0
401 402 -573 0
-401 402 573 0
401 -402 573 0
-401 -402 -573 0
403 404 -574 0
-403 404 574 0
403 -404 574 0
-403 -404 -574 0
405 406 -575 0
-405 406 575 0
405 -406 575 0
-405 -406 -575 0
407 408 -576 0
-407 408 576 0
407 -408 576 0
-407 -408 -576 0
409 410 -577 0
-409 410 577 0
409 -410 577 0
-409 -410 -577 0
411 412 -578 0
-411 412 578 0
411 -412 578 0
-411 -412 -578 0
413 414 -579 0
-413 414 579 0
413 -414 579 0
-413 -414 -579 0
415 416 -580 0
-415 416 580 0
415 -416 580 0
-415 -416 -580 0
417 418 -581 0
-417 418 581 0
417 -418 581 0
-417 -418 -581 0
419 420 -582 0
-419 420 582 0
419 -420 582 0
-419 -420 -582 0
421 422 -583 0
-421 422 583 0
421 -422 583 0
-421 -422 -583 0
423 424 -584 0
-423 424 584 0
423 -424 584 0
-423 -424 -584 0
425 426 -585 0
-425 426 585 0
425 -426 585 0
-425 -426 -585 0
427 428 -586 0
-427 428 586 0
427 -428 586 0
-427 -428 -586 0
429 430 -587 0
-429 430 587 0
429 -430 587 0
-429 -430 -587 0
431 432 -588 0
-431 432 588 0
431 -432 588 0
-431 -432 -588 0
433 434 -589 0
-433 434 589 0
433 -434 589 0
-433 -434 -589 0
435 436 -590 0
-435 436 590 0
435 -436 590 0
-435 -436 -590 0
437 438 -591 0
-437 438 591 0
437 -438 591 0
-437 -438 -591 0
439 440 -592 0
-439 440 592 0
439 -440 592 0
-439 -440 -592 0
441 442 -593 0
-441 442 593 0
441 -442 593 0
-441 -442 -593 0
443 444 -594 0
-443 444 594 0
443 -444 594 0
-443 -444 -594 0
445 446 -595 0
-445 446 595 0
445 -446 595 0
-445 -446 -595 0
447 448 -596 0
-447 448 596 0
447 -448 596 0
-447 -448 -596 0
449 450 -597 0
-449 450 597 0
449 -450 597 0
-449 -450 -597 0
451 452 -598 0
-451 452 598 0
451 -452 598 0
-451 -452 -598 0
453 454 -599 0
-453 454 599 0
453 -454 599 0
-453 -454 -599 0
455 456 -600 0
-455 456 600 0
455 -456 600 0
-455 -456 -600 0
457 458 -601 0
-457 458 601 0
457 -458 601 0
-457 -458 -601 0
459 460 -602 0
-459 460 602 0
459 -460 602 0
-459 -460 -602 0
461 462 -603 0
-461 462 603 0
461 -462 603 0
-461 -462 -603 0
463 464 -604 0
-463 464 604 0
463 -464 604 0
-463 -464 -604 0
465 466 -605 0
-465 466 605 0
465 -466 605 0
-465 -466 -605 0
467 468 -606 0
-467 468 606 0
467 -468 606 0
-467 -468 -606 0
469 470 -607 0
-469 470 607 0
469 -470 607 0
-469 -470 -607 0
471 472 -608 0
-471 472 608 0
471 -472 608 0
-471 -472 -608 0
473 474 -609 0
-473 474 609 0
473 -474 609 0
-473 -474 -609 0
475 476 -610 0
-475 476 610 0
475 -476 610 0
-475 -476 -610 0
477 478 -611 0
-477 478 611 0
477 -478 611 0
-477 -478 -611 0
479 480 -612 0
-479 480 612 0
479 -480 612 0
-479 -480 -612 0
481 482 -613 0
-481 482 613 0
481 -482 613 0
-481 -482 -613 0
483 484 -614 0
-483 484 614 0
483 -484 614 0
-483 -484 -614 0
485 486 -615 0
-485 486 615 0
485 -486 615 0
-485 -486 -615 0
487 488 -616 0
-487 488 616 0
487 -488 616 0
-487 -488 -616 0
489 490 -617 0
-489 490 617 0
489 -490 617 0
-489 -490 -617 0
491 492 -618 0
-491 492 618 0
491 -492 618 0
-491 -492 -618 0
493 494 -619 0
-493 494 619 0
493 -494 619 0
-493 -494 -619 0
495 496 -620 0
-495 496 620 0
495 -496 620 0
-495 -496 -620 0
497 498 -621 0
-497 498 621 0
497 -498 621 0
-497 -498 -621 0
499 500 -622 0
-499 500 622 0
499 -500 622 0
-499 -500 -622 0
501 502 -623 0
-501 502 623 0
501 -502 623 0
-501 -502 -623 0
503 504 -624 0
-503 504 624 0
503 -504 624 0
-503 -504 -624 0
505 506 -625 0
-505 506 625 0
505 -506 625 0
-505 -506 -625 0
507 508 -626 0
-507 508 626 0
507 -508 626 0
-507 -508 -626 0
509 510 -627 0
-509 510 627 0
509 -510 627 0
-509 -510 -627 0
511 512 -628 0
-511 512 628 0
511 -512 628 0
-511 -512 -628 0
513 514 -629 0
-513 514 629 0
513 -514 629 0
-513 -514 -629 0
515 516 -630 0
-515 516 630 0
515 -516 630 0
-515 -516 -630 0
517 518 -631 0
-517 518 631 0
517 -518 631 0
-517 -518 -631 0
519 520 -632 0
-519 520 632 0
519 -520 632 0
-519 -520 -632 0
521 522 -633 0
-521 522 633 0
521 -522 633 0
-521 -522 -633 0
523 524 -634 0
-523 524 634 0
523 -524 634 0
-523 -524 -634 0
525 526 -635 0
-525 526 635 0
525 -526 635 0
-525 -526 -635 0
527 528 -636 0
-527 528 636 0
527 -528 636 0
-527 -528 -636 0
529 530 -637 0
-529 530 637 0
529 -530 637 0
-529 -530 -637 0
531 532 -638 0
-531 532 638 0
531 -532 638 0
-531 -532 -638 0
533 534 -639 0
-533 534 639 0
533 -534 639 0
-533 -534 -639 0
535 536 -640 0
-535 536 640 0
535 -536 640 0
-535 -536 -640 0
537 538 -641 0
-537 538 641 0
537 -538 641 0
-537 -538 -641 0
539 540 -642 0
-539 540 642 0
539 -540 642 0
-539 -540 -642 0
541 542 -643 0
-541 542 643 0
541 -542 643 0
-541 -542 -643 0
543 544 -644 0
-543 544 644 0
543 -544 644 0
-543 -544 -644 0
545 546 -645 0
-545 546 645 0
545 -546 645 0
-545 -546 -645 0
547 548 -646 0
-547 548 646 0
547 -548 646 0
-547 -548 -646 0
549 550 -647 0
-549 550 647 0
549 -550 647 0
-549 -550 -647 0
551 552 -648 0
-551 552 648 0
551 -552 648 0
-551 -552 -648 0
553 554 -649 0
-553 554 649 0
553 -554 649 0
-553 -554 -649 0
555 556 -650 0
-555 556 650 0
555 -556 650 0
-555 -556 -650 0
557 558 -651 0
-557 558 651 0
557 -558 651 0
-557 -558 -651 0
559 371 -652 0
-559 371 652 0
559 -371 652 0
-559 -371 -652 0
560 561 -653 0
-560 561 653 0
560 -561 653 0
-560 -561 -653 0
562 563 -654 0
-562 563 654 0
562 -563 654 0
-562 -563 -654 0
564 565 -655 0
-564 565 655 0
564 -565 655 0
-564 -565 -655 0
566 567 -656 0
-566 567 656 0
566 -567 656 0
-566 -567 -656 0
568 569 -657 0
-568 569 657 0
568 -569 657 0
-568 -569 -657 0
570 571 -658 0
-570 571 658 0
570 -571 658 0
-570 -571 -658 0
572 573 -659 0
-572 573 659 0
572 -573 659 0
-572 -573 -659 0
574 575 -660 0
-574 575 660 0
574 -575 660 0
-574 -575 -660 0
576 577 -661 0
-576 577 661 0
576 -577 661 0
-576 -577 -661 0
578 579 -662 0
-578 579 662 0
578 -579 662 0
-578 -579 -662 0
580 581 -663 0
-580 581 663 0
580 -581 663 0
-580 -581 -663 0
582 583 -664 0
-582 583 664 0
582 -583 664 0
-582 -583 -664 0
584 585 -665 0
-584 585 665 0
584 -585 665 0
-584 -585 -665 0
586 587 -666 0
-586 587 666 0
586 -587 666 0
-586 -587 -666 0
588 589 -667 0
-588 589 667 0
588 -589 667 0
-588 -589 -667 0
590 591 -668 0
-590 591 668 0
590 -591 668 0
-590 -591 -668 0
592 593 -669 0
-592 593 669 0
592 -593 669 0
-592 -593 -669 0
594 595 -670 0
-594 595 670 0
594 -595 670 0
-594 -595 -670 0
596 597 -671 0
-596 597 671 0
596 -597 671 0
-596 -597 -671 0
598 599 -672 0
-598 599 672 0
598 -599 672 0
-598 -599 -672 0
600 601 -673 0
-600 601 673 0
600 -601 673 0
-600 -601 -673 0
602 603 -674 0
-602 603 674 0
602 -603 674 0
-602 -603 -674 0
604 605 -675 0
-604 605 675 0
604 -605 675 0
-604 -605 -675 0
606 607 -676 0
-606 607 676 0
606 -607 676 0
-606 -607 -676 0
608 609 -677 0
-608 609 677 0
608 -609 677 0
-608 -609 -677 0
610 611 -678 0
-610 611 678 0
610 -611 678 0
-610 -611 -678 0
612 613 -679 0
-612 613 679 0
612 -613 679 0
-612 -613 -679 0
614 615 -680 0
-614 615 680 0
614 -615 680 0
-614 -615 -680 0
616 617 -681 0
-616 617 681 0
616 -617 681 0
-616 -617 -681 0
618 619 -682 0
-618 619 682 0
618 -619 682 0
-618 -619 -682 0
620 621 -683 0
-620 621 683 0
620 -621 683 0
-620 -621 -683 0
622 623 -684 0
-622 623 684 0
622 -623 684 0
-622 -623 -684 0
624 625 -685 0
-624 625 685 0
624 -625 685 0
-624 -625 -685 0
626 627 -686 0
-626 627 686 0
626 -627 686 0
-626 -627 -686 0
628 629 -687 0
-628 629 687 0
628 -629 687 0
-628 -629 -687 0
630 631 -688 0
-630 631 688 0
630 -631 688 0
-630 -631 -688 0
632 633 -689 0
-632 633 689 0
632 -633 689 0
-632 -633 -689 0
634 635 -690 0
-634 635 690 0
634 -635 690 0
-634 -635 -690 0
636 637 -691 0
-636 637 691 0
636 -637 691 0
-636 -637 -691 0
638 639 -692 0
-638 639 692 0
638 -639 692 0
-638 -639 -692 0
640 641 -693 0
-640 641 693 0
640 -641 693 0
-640 -641 -693 0
642 643 -694 0
-642 643 694 0
642 -643 694 0
-642 -643 -694 0
644 645 -695 0
-644 645 695 0
644 -645 695 0
-644 -645 -695 0
646 647 -696 0
-646 647 696 0
646 -647 696 0
-646 -647 -696 0
648 649 -697 0
-648 649 697 0
648 -649 697 0
-648 -649 -697 0
650 651 -698 0
-650 651 698 0
650 -651 698 0
-650 -651 -698 0
653 654 -699 0
-653 654 699 0
653 -654 699 0
-653 -654 -699 0
655 656 -700 0
-655 656 700 0
655 -656 700 0
-655 -656 -700 0
657 658 -701 0
-657 658 701 0
657 -658 701 0
-657 -658 -701 0
659 660 -702 0
-659 660 702 0
659 -660 702 0
-659 -660 -702 0
661 662 -703 0
-661 662 703 0
661 -662 703 0
-661 -662 -703 0
663 664 -704 0
-663 664 704 0
663 -664 704 0
-663 -664 -704 0
665 666 -705 0
-665 666 705 0
665 -666 705 0
-665 -666 -705 0
667 668 -706 0
-667 668 706 0
667 -668 706 0
-667 -668 -706 0
669 670 -707 0
-669 670 707 0
669 -670 707 0
-669 -670 -707 0
671 672 -708 0
-671 672 708 0
671 -672 708 0
-671 -672 -708 0
673 674 -709 0
-673 674 709 0
673 -674 709 0
-673 -674 -709 0
675 676 -710 0
-675 676 710 0
675 -676 710 0
-675 -676 -710 0
677 678 -711 0
-677 678 711 0
677 -678 711 0
-677 -678 -711 0
679 680 -712 0
-679 680 712 0
679 -680 712 0
-679 -680 -712 0
681 682 -713 0
-681 682 713 0
681 -682 713 0
-681 -682 -713 0
683 684 -714 0
-683 684 714 0
683 -684 714 0
-683 -684 -714 0
685 686 -715 0
-685 686 715 0
685 -686 715 0
-685 -686 -715 0
687 688 -716 0
-687 688 716 0
687 -688 716 0
-687 -688 -716 0
689 690 -717 0
-689 690 717 0
689 -690 717 0
-689 -690 -717 0
691 692 -718 0
-691 692 718 0
691 -692 718 0
-691 -692 -718 0
693 694 -719 0
-693 694 719 0
693 -694 719 0
-693 -694 -719 0
695 696 -720 0
-695 696 720 0
695 -696 720 0
-695 -696 -720 0
697 698 -721 0
-697 698 721 0
697 -698 721 0
-697 -698 -721 0
699 700 -722 0
-699 700 722 0
699 -700 722 0
-699 -700 -722 0
701 702 -723 0
-701 702 723 0
701 -702 723 0
-701 -702 -723 0
703 704 -724 0
-703 704 724 0
703 -704 724 0
-703 -704 -724 0
705 706 -725 0
-705 706 725 0
705 -706 725 0
-705 -706 -725 0
707 708 -726 0
-707 708 726 0
707 -708 726 0
-707 -708 -726 0
709 710 -727 0
-709 710 727 0
709 -710 727 0
-709 -710 -727 0
711 712 -728 0
-711 712 728 0
711 -712 728 0
-711 -712 -728 0
713 714 -729 0
-713 714 729 0
713 -714 729 0
-713 -714 -729 0
715 716 -730 0
-715 716 730 0
715 -716 730 0
-715 -716 -730 0
717 718 -731 0
-717 718 731 0
717 -718 731 0
-717 -718 -731 0
719 720 -732 0
-719 720 732 0
719 -720 732 0
-719 -720 -732 0
721 652 -733 0
-721 652 733 0
721 -652 733 0
-721 -652 -733 0
722 723 -734 0
-722 723 734 0
722 -723 734 0
-722 -723 -734 0
724 725 -735 0
-724 725 735 0
724 -725 735 0
-724 -725 -735 0
726 727 -736 0
-726 727 736 0
726 -727 736 0
-726 -727 -736 0
728 729 -737 0
-728 729 737 0
728 -729 737 0
-728 -729 -737 0
730 731 -738 0
-730 731 738 0
730 -731 738 0
-730 -731 -738 0
732 733 -739 0
-732 733 739 0
732 -733 739 0
-732 -733 -739 0
734 735 -740 0
-734 735 740 0
734 -735 740 0
-734 -735 -740 0
736 737 -741 0
-736 737 741 0
736 -737 741 0
-736 -737 -741 0
738 739 -742 0
-738 739 742 0
738 -739 742 0
-738 -739 -742 0
740 741 -743 0
-740 741 743 0
740 -741 743 0
-740 -741 -743 0
743 742 -372 0
-743 742 372 0
743 -742 372 0
-743 -742 -372 0
